; EXAMPLE OF SMT-LIB FILE GENERATED BY THE ENCODING 0 FOR THE INSTANCE 1, WITH l_max=5 
(set-option :produce-models true)
(declare-fun coordX (Int) Int)
(declare-fun coordY (Int) Int)
(assert (and (>= (coordX 0) 0) (<= (coordX 0) (- 4 2))))
(assert (and (>= (coordX 1) 0) (<= (coordX 1) (- 4 3))))
(assert (and (>= (coordY 0) 0) (<= (coordY 0) (- 5 2))))
(assert (and (>= (coordY 1) 0) (<= (coordY 1) (- 5 3))))
(assert (or (<= (+ (coordX 0) 2) (coordX 1)) (<= (+ (coordX 1) 3) (coordX 0)) (<= (+ (coordY 0) 2) (coordY 1)) (<= (+ (coordY 1) 3) (coordY 0))))
(check-sat)
(get-value ((coordX 0)  (coordX 1) (coordY 0)  (coordY 1) ))
